c CNF file generated from BLIF2CNF script.
c Original BLIF file was blif/donfile.blif
p cnf 136 495
-1 -3 0
3 1  0
-3 2 0
-2 3  0
-4 -6 0
6 4  0
-6 5 0
-5 6  0
-7 -9 0
9 7  0
-9 8 0
-8 9  0
-10 -12 0
12 10  0
-12 11 0
-11 12  0
-13 -15 0
15 13  0
-15 14 0
-14 15  0
-16 -18 0
18 16  0
-18 17 0
-17 18  0
19 -26 0
-20 -26 0
-21 -26 0
-22 -26 0
23 -26 0
24 -26 0
26 -19 20 21 22 -23 -24  0
-26 25 0
-25 26  0
19 -29 0
-20 -29 0
22 -29 0
23 -29 0
-27 -29 0
-24 -29 0
29 -19 20 -22 -23 27 24  0
-29 28 0
-28 29  0
19 -31 0
20 -31 0
-21 -31 0
23 -31 0
-27 -31 0
31 -19 -20 21 -23 27  0
-31 30 0
-30 31  0
-19 -33 0
-20 -33 0
22 -33 0
23 -33 0
27 -33 0
-24 -33 0
33 19 20 -22 -23 -27 24  0
-33 32 0
-32 33  0
-19 -35 0
20 -35 0
22 -35 0
23 -35 0
-27 -35 0
-24 -35 0
35 19 -20 -22 -23 27 24  0
-35 34 0
-34 35  0
19 -37 0
-20 -37 0
-21 -37 0
22 -37 0
23 -37 0
-27 -37 0
37 -19 20 21 -22 -23 27  0
-37 36 0
-36 37  0
20 -39 0
-21 -39 0
-22 -39 0
23 -39 0
27 -39 0
24 -39 0
39 -20 21 22 -23 -27 -24  0
-39 38 0
-38 39  0
19 -41 0
-20 -41 0
22 -41 0
-23 -41 0
-24 -41 0
41 -19 20 -22 23 24  0
-41 40 0
-40 41  0
-19 -43 0
20 -43 0
22 -43 0
23 -43 0
27 -43 0
-24 -43 0
43 19 -20 -22 -23 -27 24  0
-43 42 0
-42 43  0
-19 -45 0
-20 -45 0
-23 -45 0
-27 -45 0
24 -45 0
45 19 20 23 27 -24  0
-45 44 0
-44 45  0
20 -47 0
-21 -47 0
22 -47 0
-23 -47 0
24 -47 0
47 -20 21 -22 23 -24  0
-47 46 0
-46 47  0
-19 -49 0
20 -49 0
-23 -49 0
-27 -49 0
24 -49 0
49 19 -20 23 27 -24  0
-49 48 0
-48 49  0
20 -51 0
-21 -51 0
22 -51 0
23 -51 0
-24 -51 0
51 -20 21 -22 -23 24  0
-51 50 0
-50 51  0
-19 -53 0
-21 -53 0
22 -53 0
-23 -53 0
24 -53 0
53 19 21 -22 23 -24  0
-53 52 0
-52 53  0
19 -55 0
-21 -55 0
22 -55 0
23 -55 0
-24 -55 0
55 -19 21 -22 -23 24  0
-55 54 0
-54 55  0
-19 -57 0
-20 -57 0
21 -57 0
22 -57 0
-27 -57 0
57 19 20 -21 -22 27  0
-57 56 0
-56 57  0
20 -59 0
21 -59 0
22 -59 0
23 -59 0
24 -59 0
59 -20 -21 -22 -23 -24  0
-59 58 0
-58 59  0
19 -61 0
20 -61 0
21 -61 0
27 -61 0
-24 -61 0
61 -19 -20 -21 -27 24  0
-61 60 0
-60 61  0
-19 -63 0
-20 -63 0
-21 -63 0
22 -63 0
-24 -63 0
63 19 20 21 -22 24  0
-63 62 0
-62 63  0
-19 -65 0
-22 -65 0
23 -65 0
27 -65 0
24 -65 0
65 19 22 -23 -27 -24  0
-65 64 0
-64 65  0
-19 -67 0
-21 -67 0
22 -67 0
-27 -67 0
24 -67 0
67 19 21 -22 27 -24  0
-67 66 0
-66 67  0
-19 -69 0
20 -69 0
-22 -69 0
23 -69 0
27 -69 0
69 19 -20 22 -23 -27  0
-69 68 0
-68 69  0
-19 -71 0
20 -71 0
-21 -71 0
23 -71 0
24 -71 0
71 19 -20 21 -23 -24  0
-71 70 0
-70 71  0
-19 -73 0
20 -73 0
22 -73 0
-23 -73 0
27 -73 0
73 19 -20 -22 23 -27  0
-73 72 0
-72 73  0
19 -75 0
-20 -75 0
22 -75 0
27 -75 0
24 -75 0
75 -19 20 -22 -27 -24  0
-75 74 0
-74 75  0
-19 -77 0
20 -77 0
-21 -77 0
22 -77 0
23 -77 0
77 19 -20 21 -22 -23  0
-77 76 0
-76 77  0
19 -79 0
-20 -79 0
-22 -79 0
27 -79 0
79 -19 20 22 -27  0
-79 78 0
-78 79  0
-20 -81 0
-23 -81 0
27 -81 0
24 -81 0
81 20 23 -27 -24  0
-81 80 0
-80 81  0
19 -83 0
22 -83 0
-23 -83 0
27 -83 0
83 -19 -22 23 -27  0
-83 82 0
-82 83  0
-19 -85 0
21 -85 0
-22 -85 0
-23 -85 0
85 19 -21 22 23  0
-85 84 0
-84 85  0
-19 -87 0
-20 -87 0
21 -87 0
-24 -87 0
87 19 20 -21 24  0
-87 86 0
-86 87  0
-19 -89 0
-20 -89 0
21 -89 0
-22 -89 0
89 19 20 -21 22  0
-89 88 0
-88 89  0
-19 -91 0
21 -91 0
-22 -91 0
27 -91 0
91 19 -21 22 -27  0
-91 90 0
-90 91  0
19 -93 0
20 -93 0
-22 -93 0
23 -93 0
93 -19 -20 22 -23  0
-93 92 0
-92 93  0
-20 -95 0
21 -95 0
22 -95 0
24 -95 0
95 20 -21 -22 -24  0
-95 94 0
-94 95  0
19 -97 0
20 -97 0
22 -97 0
-24 -97 0
97 -19 -20 -22 24  0
-97 96 0
-96 97  0
-19 -99 0
21 -99 0
27 -99 0
-24 -99 0
99 19 -21 -27 24  0
-99 98 0
-98 99  0
20 -101 0
21 -101 0
-22 -101 0
27 -101 0
101 -20 -21 22 -27  0
-101 100 0
-100 101  0
-19 -103 0
20 -103 0
21 -103 0
24 -103 0
103 19 -20 -21 -24  0
-103 102 0
-102 103  0
-19 -105 0
20 -105 0
27 -105 0
24 -105 0
105 19 -20 -27 -24  0
-105 104 0
-104 105  0
-19 -107 0
20 -107 0
21 -107 0
-22 -107 0
107 19 -20 -21 22  0
-107 106 0
-106 107  0
19 -109 0
23 -109 0
-24 -109 0
109 -19 -23 24  0
-109 108 0
-108 109  0
20 -111 0
22 -111 0
27 -111 0
24 -111 0
111 -20 -22 -27 -24  0
-111 110 0
-110 111  0
-19 -113 0
22 -113 0
23 -113 0
24 -113 0
113 19 -22 -23 -24  0
-113 112 0
-112 113  0
-22 -115 0
23 -115 0
24 -115 0
115 22 -23 -24  0
-115 114 0
-114 115  0
19 -117 0
20 -117 0
-23 -117 0
117 -19 -20 23  0
-117 116 0
-116 117  0
20 -119 0
21 -119 0
-23 -119 0
119 -20 -21 23  0
-119 118 0
-118 119  0
20 -121 0
-27 -121 0
24 -121 0
121 -20 27 -24  0
-121 120 0
-120 121  0
-19 -123 0
-23 -123 0
27 -123 0
123 19 23 -27  0
-123 122 0
-122 123  0
-19 -125 0
-20 -125 0
-22 -125 0
125 19 20 22  0
-125 124 0
-124 125  0
-19 -127 0
20 -127 0
127 19 -20  0
-127 126 0
-126 127  0
128 0
-28 -130 0
-30 -130 0
-36 -130 0
-38 -130 0
-42 -130 0
-48 -130 0
-52 -130 0
-54 -130 0
-84 -130 0
-90 -130 0
-92 -130 0
-96 -130 0
-98 -130 0
-102 -130 0
-106 -130 0
-129 -130 0
130 28 30 36 38 42 48 52 54 84 90 92 96 98 102 106 129  0
-130 129 0
-129 130  0
-28 -131 0
-36 -131 0
-46 -131 0
-54 -131 0
-56 -131 0
-58 -131 0
-60 -131 0
-62 -131 0
-100 -131 0
-110 -131 0
-112 -131 0
-122 -131 0
-126 -131 0
131 28 36 46 54 56 58 60 62 100 110 112 122 126  0
-131 7 0
-7 131  0
-30 -132 0
-36 -132 0
-56 -132 0
-62 -132 0
-66 -132 0
-76 -132 0
-98 -132 0
-108 -132 0
-112 -132 0
-114 -132 0
-124 -132 0
132 30 36 56 62 66 76 98 108 112 114 124  0
-132 10 0
-10 132  0
-25 -134 0
-32 -134 0
-34 -134 0
-40 -134 0
-44 -134 0
-50 -134 0
-60 -134 0
-64 -134 0
-68 -134 0
-70 -134 0
-72 -134 0
-74 -134 0
-78 -134 0
-88 -134 0
-94 -134 0
-133 -134 0
- -134 0
134 25 32 34 40 44 50 60 64 68 70 72 74 78 88 94 133   0
-134 133 0
-133 134  0
-38 -135 0
-42 -135 0
-66 -135 0
-74 -135 0
-76 -135 0
-80 -135 0
-82 -135 0
-86 -135 0
-106 -135 0
-110 -135 0
-116 -135 0
-120 -135 0
-124 -135 0
135 38 42 66 74 76 80 82 86 106 110 116 120 124  0
-135 16 0
-16 135  0
-128 -136 0
136 128  0
-136 1 0
-1 136  0
